p edge 101 798
v 1 1150
v 2 200
v 3 120
v 4 80
v 5 50
v 6 80
v 7 110
v 8 1150
v 9 2100
v 10 900
v 11 650
v 12 150
v 13 400
v 14 280
v 15 250
v 16 150
v 17 150
v 18 180
v 19 2100
v 20 450
v 21 130
v 22 360
v 23 350
v 24 70
v 25 80
v 26 900
v 27 90
v 28 50
v 29 60
v 30 60
v 31 30
v 32 20
v 33 200
v 34 450
v 35 90
v 36 60
v 37 15
v 38 120
v 39 30
v 40 25
v 41 25
v 42 30
v 43 30
v 44 650
v 45 60
v 46 130
v 47 40
v 48 30
v 49 70
v 50 80
v 51 120
v 52 150
v 53 130
v 54 50
v 55 15
v 56 130
v 57 60
v 58 30
v 59 10
v 60 30
v 61 10
v 62 400
v 63 120
v 64 60
v 65 30
v 66 100
v 67 50
v 68 50
v 69 80
v 70 280
v 71 360
v 72 60
v 73 30
v 74 40
v 75 30
v 76 60
v 77 10
v 78 20
v 79 50
v 80 250
v 81 350
v 82 60
v 83 25
v 84 30
v 85 30
v 86 100
v 87 10
v 88 30
v 89 30
v 90 80
v 91 150
v 92 70
v 93 30
v 94 25
v 95 70
v 96 10
v 97 50
v 98 60
v 99 10
v 100 100
v 101 110
e 1 2
e 1 3
e 1 4
e 1 5
e 1 6
e 1 7
e 1 8
e 1 18
e 1 25
e 1 31
e 1 40
e 1 47
e 1 57
e 1 64
e 1 74
e 1 83
e 1 93
e 2 3
e 2 4
e 2 5
e 2 6
e 2 7
e 2 10
e 2 26
e 2 33
e 2 43
e 2 50
e 2 59
e 2 66
e 2 86
e 2 96
e 3 4
e 3 5
e 3 6
e 3 7
e 3 11
e 3 20
e 3 34
e 3 44
e 3 51
e 3 61
e 3 68
e 3 76
e 3 98
e 4 5
e 4 6
e 4 7
e 4 13
e 4 21
e 4 53
e 4 62
e 4 69
e 4 78
e 4 88
e 5 6
e 5 7
e 5 14
e 5 28
e 5 36
e 5 45
e 5 54
e 5 70
e 5 79
e 5 89
e 6 7
e 6 15
e 6 22
e 6 37
e 6 55
e 6 71
e 6 80
e 6 90
e 6 100
e 7 16
e 7 23
e 7 29
e 7 38
e 7 46
e 7 56
e 7 63
e 7 72
e 7 81
e 7 91
e 7 101
e 8 9
e 8 10
e 8 11
e 8 12
e 8 13
e 8 14
e 8 15
e 8 16
e 8 18
e 8 25
e 8 31
e 8 40
e 8 47
e 8 57
e 8 64
e 8 74
e 8 83
e 8 93
e 9 10
e 9 11
e 9 12
e 9 13
e 9 14
e 9 15
e 9 16
e 9 19
e 9 42
e 9 49
e 9 58
e 9 65
e 9 75
e 9 85
e 9 95
e 10 11
e 10 12
e 10 13
e 10 14
e 10 15
e 10 16
e 10 26
e 10 33
e 10 43
e 10 50
e 10 59
e 10 66
e 10 86
e 10 96
e 11 12
e 11 13
e 11 14
e 11 15
e 11 16
e 11 20
e 11 34
e 11 44
e 11 51
e 11 61
e 11 68
e 11 76
e 11 98
e 12 13
e 12 14
e 12 15
e 12 16
e 12 27
e 12 35
e 12 52
e 12 77
e 12 87
e 12 99
e 13 14
e 13 15
e 13 16
e 13 21
e 13 53
e 13 62
e 13 69
e 13 78
e 13 88
e 14 15
e 14 16
e 14 28
e 14 36
e 14 45
e 14 54
e 14 70
e 14 79
e 14 89
e 15 16
e 15 22
e 15 37
e 15 55
e 15 71
e 15 80
e 15 90
e 15 100
e 16 23
e 16 29
e 16 38
e 16 46
e 16 56
e 16 63
e 16 72
e 16 81
e 16 91
e 16 101
e 17 18
e 17 19
e 17 20
e 17 21
e 17 22
e 17 23
e 17 24
e 17 30
e 17 39
e 17 73
e 17 82
e 17 92
e 18 19
e 18 20
e 18 21
e 18 22
e 18 23
e 18 25
e 18 31
e 18 40
e 18 47
e 18 57
e 18 64
e 18 74
e 18 83
e 18 93
e 19 20
e 19 21
e 19 22
e 19 23
e 19 42
e 19 49
e 19 58
e 19 65
e 19 75
e 19 85
e 19 95
e 20 21
e 20 22
e 20 23
e 20 34
e 20 44
e 20 51
e 20 61
e 20 68
e 20 76
e 20 98
e 21 22
e 21 23
e 21 53
e 21 62
e 21 69
e 21 78
e 21 88
e 22 23
e 22 37
e 22 55
e 22 71
e 22 80
e 22 90
e 22 100
e 23 29
e 23 38
e 23 46
e 23 56
e 23 63
e 23 72
e 23 81
e 23 91
e 23 101
e 24 25
e 24 26
e 24 27
e 24 28
e 24 29
e 24 30
e 24 39
e 24 73
e 24 82
e 24 92
e 25 26
e 25 27
e 25 28
e 25 29
e 25 31
e 25 40
e 25 47
e 25 57
e 25 64
e 25 74
e 25 83
e 25 93
e 26 27
e 26 28
e 26 29
e 26 33
e 26 43
e 26 50
e 26 59
e 26 66
e 26 86
e 26 96
e 27 28
e 27 29
e 27 35
e 27 52
e 27 77
e 27 87
e 27 99
e 28 29
e 28 36
e 28 45
e 28 54
e 28 70
e 28 79
e 28 89
e 29 38
e 29 46
e 29 56
e 29 63
e 29 72
e 29 81
e 29 91
e 29 101
e 30 31
e 30 32
e 30 33
e 30 34
e 30 35
e 30 36
e 30 37
e 30 38
e 30 39
e 30 73
e 30 82
e 30 92
e 31 32
e 31 33
e 31 34
e 31 35
e 31 36
e 31 37
e 31 38
e 31 40
e 31 47
e 31 57
e 31 64
e 31 74
e 31 83
e 31 93
e 32 33
e 32 34
e 32 35
e 32 36
e 32 37
e 32 38
e 32 41
e 32 48
e 32 84
e 32 94
e 33 34
e 33 35
e 33 36
e 33 37
e 33 38
e 33 43
e 33 50
e 33 59
e 33 66
e 33 86
e 33 96
e 34 35
e 34 36
e 34 37
e 34 38
e 34 44
e 34 51
e 34 61
e 34 68
e 34 76
e 34 98
e 35 36
e 35 37
e 35 38
e 35 52
e 35 77
e 35 87
e 35 99
e 36 37
e 36 38
e 36 45
e 36 54
e 36 70
e 36 79
e 36 89
e 37 38
e 37 55
e 37 71
e 37 80
e 37 90
e 37 100
e 38 46
e 38 56
e 38 63
e 38 72
e 38 81
e 38 91
e 38 101
e 39 40
e 39 41
e 39 42
e 39 43
e 39 44
e 39 45
e 39 46
e 39 73
e 39 82
e 39 92
e 40 41
e 40 42
e 40 43
e 40 44
e 40 45
e 40 46
e 40 47
e 40 57
e 40 64
e 40 74
e 40 83
e 40 93
e 41 42
e 41 43
e 41 44
e 41 45
e 41 46
e 41 48
e 41 84
e 41 94
e 42 43
e 42 44
e 42 45
e 42 46
e 42 49
e 42 58
e 42 65
e 42 75
e 42 85
e 42 95
e 43 44
e 43 45
e 43 46
e 43 50
e 43 59
e 43 66
e 43 86
e 43 96
e 44 45
e 44 46
e 44 51
e 44 61
e 44 68
e 44 76
e 44 98
e 45 46
e 45 54
e 45 70
e 45 79
e 45 89
e 46 56
e 46 63
e 46 72
e 46 81
e 46 91
e 46 101
e 47 48
e 47 49
e 47 50
e 47 51
e 47 52
e 47 53
e 47 54
e 47 55
e 47 56
e 47 57
e 47 64
e 47 74
e 47 83
e 47 93
e 48 49
e 48 50
e 48 51
e 48 52
e 48 53
e 48 54
e 48 55
e 48 56
e 48 84
e 48 94
e 49 50
e 49 51
e 49 52
e 49 53
e 49 54
e 49 55
e 49 56
e 49 58
e 49 65
e 49 75
e 49 85
e 49 95
e 50 51
e 50 52
e 50 53
e 50 54
e 50 55
e 50 56
e 50 59
e 50 66
e 50 86
e 50 96
e 51 52
e 51 53
e 51 54
e 51 55
e 51 56
e 51 61
e 51 68
e 51 76
e 51 98
e 52 53
e 52 54
e 52 55
e 52 56
e 52 77
e 52 87
e 52 99
e 53 54
e 53 55
e 53 56
e 53 62
e 53 69
e 53 78
e 53 88
e 54 55
e 54 56
e 54 70
e 54 79
e 54 89
e 55 56
e 55 71
e 55 80
e 55 90
e 55 100
e 56 63
e 56 72
e 56 81
e 56 91
e 56 101
e 57 58
e 57 59
e 57 60
e 57 61
e 57 62
e 57 63
e 57 64
e 57 74
e 57 83
e 57 93
e 58 59
e 58 60
e 58 61
e 58 62
e 58 63
e 58 65
e 58 75
e 58 85
e 58 95
e 59 60
e 59 61
e 59 62
e 59 63
e 59 66
e 59 86
e 59 96
e 60 61
e 60 62
e 60 63
e 60 67
e 60 97
e 61 62
e 61 63
e 61 68
e 61 76
e 61 98
e 62 63
e 62 69
e 62 78
e 62 88
e 63 72
e 63 81
e 63 91
e 63 101
e 64 65
e 64 66
e 64 67
e 64 68
e 64 69
e 64 70
e 64 71
e 64 72
e 64 74
e 64 83
e 64 93
e 65 66
e 65 67
e 65 68
e 65 69
e 65 70
e 65 71
e 65 72
e 65 75
e 65 85
e 65 95
e 66 67
e 66 68
e 66 69
e 66 70
e 66 71
e 66 72
e 66 86
e 66 96
e 67 68
e 67 69
e 67 70
e 67 71
e 67 72
e 67 97
e 68 69
e 68 70
e 68 71
e 68 72
e 68 76
e 68 98
e 69 70
e 69 71
e 69 72
e 69 78
e 69 88
e 70 71
e 70 72
e 70 79
e 70 89
e 71 72
e 71 80
e 71 90
e 71 100
e 72 81
e 72 91
e 72 101
e 73 74
e 73 75
e 73 76
e 73 77
e 73 78
e 73 79
e 73 80
e 73 81
e 73 82
e 73 92
e 74 75
e 74 76
e 74 77
e 74 78
e 74 79
e 74 80
e 74 81
e 74 83
e 74 93
e 75 76
e 75 77
e 75 78
e 75 79
e 75 80
e 75 81
e 75 85
e 75 95
e 76 77
e 76 78
e 76 79
e 76 80
e 76 81
e 76 98
e 77 78
e 77 79
e 77 80
e 77 81
e 77 87
e 77 99
e 78 79
e 78 80
e 78 81
e 78 88
e 79 80
e 79 81
e 79 89
e 80 81
e 80 90
e 80 100
e 81 91
e 81 101
e 82 83
e 82 84
e 82 85
e 82 86
e 82 87
e 82 88
e 82 89
e 82 90
e 82 91
e 82 92
e 83 84
e 83 85
e 83 86
e 83 87
e 83 88
e 83 89
e 83 90
e 83 91
e 83 93
e 84 85
e 84 86
e 84 87
e 84 88
e 84 89
e 84 90
e 84 91
e 84 94
e 85 86
e 85 87
e 85 88
e 85 89
e 85 90
e 85 91
e 85 95
e 86 87
e 86 88
e 86 89
e 86 90
e 86 91
e 86 96
e 87 88
e 87 89
e 87 90
e 87 91
e 87 99
e 88 89
e 88 90
e 88 91
e 89 90
e 89 91
e 90 91
e 90 100
e 91 101
e 92 93
e 92 94
e 92 95
e 92 96
e 92 97
e 92 98
e 92 99
e 92 100
e 92 101
e 93 94
e 93 95
e 93 96
e 93 97
e 93 98
e 93 99
e 93 100
e 93 101
e 94 95
e 94 96
e 94 97
e 94 98
e 94 99
e 94 100
e 94 101
e 95 96
e 95 97
e 95 98
e 95 99
e 95 100
e 95 101
e 96 97
e 96 98
e 96 99
e 96 100
e 96 101
e 97 98
e 97 99
e 97 100
e 97 101
e 98 99
e 98 100
e 98 101
e 99 100
e 99 101
e 100 101
